;; sequence(s): A176563
;; terms: 1 ~3 1 1 1 ~3 1 1 1 ~3 1 1 1 ~3 1 1 1 ~3 1 1
;; small program: loop(loop2(0 - y, x, y, x, 2), x, 2) - 1
;; fast program: loop(1 - (2 + 2), ((0 - x) mod (2 + 2)) - 2, 1)
(set-logic UFNIA)
(define-fun modf ((a Int) (b Int)) Int (ite (< 0 b) (mod a b) (- (mod (- a) (- b)))))
(declare-fun f1 (Int Int) Int)
(declare-fun g1 (Int) Int)
(declare-fun h1 (Int Int) Int)
(declare-fun i1 (Int) Int)
(declare-fun j1 () Int)
(declare-fun u1 (Int Int Int) Int)
(declare-fun v1 (Int Int Int) Int)
(declare-fun w1 (Int Int) Int)
(declare-fun f0 (Int Int) Int)
(declare-fun g0 (Int) Int)
(declare-fun h0 () Int)
(declare-fun u0 (Int Int) Int)
(declare-fun v0 (Int) Int)
(declare-fun small (Int) Int)
(declare-fun f2 () Int)
(declare-fun g2 (Int) Int)
(declare-fun h2 () Int)
(declare-fun u2 (Int Int) Int)
(declare-fun v2 (Int) Int)
(declare-fun fast (Int) Int)
(assert (forall ((x Int) (y Int)) (= (f1 x y) (- 0 y))))
(assert (forall ((x Int)) (= (g1 x) x)))
(assert (forall ((x Int) (y Int)) (= (h1 x y) y)))
(assert (forall ((x Int)) (= (i1 x) x)))
(assert (= j1 2))
(assert (forall ((x Int) (y Int) (z Int)) (= (u1 x y z) (ite (<= x 0) y (f1 (u1 (- x 1) y z) (v1 (- x 1) y z))))))
(assert (forall ((x Int) (y Int) (z Int)) (= (v1 x y z) (ite (<= x 0) z (g1 (u1 (- x 1) y z))))))
(assert (forall ((x Int) (y Int)) (= (w1 x y) (u1 (h1 x y) (i1 x) j1))))
(assert (forall ((x Int) (y Int)) (= (f0 x y) (w1 x y))))
(assert (forall ((x Int)) (= (g0 x) x)))
(assert (= h0 2))
(assert (forall ((x Int) (y Int)) (= (u0 x y) (ite (<= x 0) y (f0 (u0 (- x 1) y) x)))))
(assert (forall ((x Int)) (= (v0 x) (u0 (g0 x) h0))))
(assert (forall ((x Int)) (= (small x) (- (v0 x) 1))))
(assert (= f2 (- 1 (+ 2 2))))
(assert (forall ((x Int)) (= (g2 x) (- (modf (- 0 x) (+ 2 2)) 2))))
(assert (= h2 1))
(assert (forall ((x Int) (y Int)) (= (u2 x y) (ite (<= x 0) y f2))))
(assert (forall ((x Int)) (= (v2 x) (u2 (g2 x) h2))))
(assert (forall ((x Int)) (= (fast x) (v2 x))))
(assert (exists ((c Int)) (and (>= c 0) (not (= (small c) (fast c))))))
(check-sat)
